p cnf 875 1915
a 1 2 3 4 5 6 7 8 9 10 11 12 13 15 16 17 18 19 20 21 22 23 24 25 26 27 28 29 30 31 32 33 34 35 36 37 38 39 40 41 42 43 44 45 46 47 48 49 53 54 55 56 57 58 62 66 67 68 69 70 71 72 73 80 81 82 0
e 14 50 51 52 59 60 61 63 64 65 74 75 76 77 78 79 83 84 85 86 87 88 89 90 91 92 93 94 95 96 97 98 99 100 101 102 103 104 105 106 107 108 109 110 111 112 113 114 115 116 117 118 119 120 121 122 123 124 125 126 127 128 129 130 131 132 133 134 135 136 137 138 139 140 141 142 143 144 145 146 147 148 149 150 151 152 153 154 155 156 157 158 159 160 161 162 163 164 165 166 167 168 169 170 171 172 173 174 175 176 177 178 179 180 181 182 183 184 185 186 187 188 189 190 191 192 193 194 195 196 197 198 199 200 201 202 203 204 205 206 207 208 209 210 211 212 213 214 215 216 217 218 219 220 221 222 223 224 225 226 227 228 229 230 231 232 233 234 235 236 237 238 239 240 241 242 243 244 245 246 247 248 249 250 251 252 253 254 255 256 257 258 259 260 261 262 263 264 265 266 267 268 269 270 271 272 273 274 275 276 277 278 279 280 281 282 283 284 285 286 287 288 289 290 291 292 293 294 295 296 297 298 299 300 301 302 303 304 305 306 307 308 309 310 311 312 313 314 315 316 317 318 319 320 321 322 323 324 325 326 327 328 329 330 331 332 333 334 335 336 337 338 339 340 341 342 343 344 345 346 347 348 349 350 351 352 353 354 355 356 357 358 359 360 361 362 363 364 365 366 367 368 369 370 371 372 373 374 375 376 377 378 379 380 381 382 383 384 385 386 387 388 389 390 391 392 393 394 395 396 397 398 399 400 401 402 403 404 405 406 407 408 409 410 411 412 413 414 415 416 417 418 419 420 421 422 423 424 425 426 427 428 429 430 431 432 433 434 435 436 437 438 439 440 441 442 443 444 445 446 447 448 449 450 451 452 453 454 455 456 457 458 459 460 461 462 463 464 465 466 467 468 469 470 471 472 473 474 475 476 477 478 479 480 481 482 483 484 485 486 487 488 489 490 491 492 493 494 495 496 497 498 499 500 501 502 503 504 505 506 507 508 509 510 511 512 513 514 515 516 517 518 519 520 521 522 523 524 525 526 527 528 529 530 531 532 533 534 535 536 537 538 539 540 541 542 543 544 545 546 547 548 549 550 551 552 553 554 555 556 557 558 559 560 561 562 563 564 565 566 567 568 569 570 571 572 573 574 575 576 577 578 579 580 581 582 583 584 585 586 587 588 589 590 591 592 593 594 595 596 597 598 599 600 601 602 603 604 605 606 607 608 609 610 611 612 613 614 615 616 617 618 619 620 621 622 623 624 625 626 627 628 629 630 631 632 633 634 635 636 637 638 639 640 641 642 643 644 645 646 647 648 649 650 651 652 653 654 655 656 657 658 659 660 661 662 663 664 665 666 667 668 669 670 671 672 673 674 675 676 677 678 679 680 681 682 683 684 685 686 687 688 689 690 691 692 693 694 695 696 697 698 699 700 701 702 703 704 705 706 707 708 709 710 711 712 713 714 715 716 717 718 719 720 721 722 723 724 725 726 727 728 729 730 731 732 733 734 735 736 737 738 739 740 741 742 743 744 745 746 747 748 749 750 751 752 753 754 755 756 757 758 759 760 761 762 763 764 765 766 767 768 769 770 771 772 773 774 775 776 777 778 779 780 781 782 783 784 785 786 787 788 789 790 791 792 793 794 795 796 797 798 799 800 801 802 803 804 805 806 807 808 809 810 811 812 813 814 815 816 817 818 819 820 821 822 823 824 825 826 827 828 829 830 831 832 833 834 835 836 837 838 839 840 841 842 843 844 845 846 847 848 849 850 851 852 853 854 855 856 857 858 859 860 861 862 863 864 865 866 867 868 869 870 871 872 873 874 875 0
-875 0
875 -478 0
875 -874 0
-873 -802 -731 -660 -561 874 0
873 -824 0
873 -840 0
873 -856 0
873 -872 0
873 -656 0
873 -657 0
873 -658 0
873 -659 0
-871 -866 -861 872 0
871 -607 0
871 -608 0
871 -821 0
871 -867 0
871 -868 0
871 -869 0
871 -870 0
871 -822 0
871 -73 0
871 -72 0
871 -57 0
871 -56 0
871 -39 0
871 -38 0
871 -37 0
-3 75 870 0
-6 -75 869 0
-45 -74 868 0
-42 74 867 0
866 -601 0
866 -602 0
866 -862 0
866 -863 0
866 -814 0
866 -864 0
866 -865 0
866 -815 0
866 -71 0
866 -70 0
866 -54 0
866 -53 0
866 -26 0
866 -25 0
866 -24 0
-2 75 865 0
-4 -75 864 0
-32 -74 863 0
-29 74 862 0
861 -593 0
861 -594 0
861 -806 0
861 -857 0
861 -858 0
861 -859 0
861 -860 0
861 -808 0
861 -69 0
861 -68 0
861 -48 0
861 -47 0
861 -12 0
861 -11 0
861 -10 0
-1 75 860 0
-5 -75 859 0
-19 -74 858 0
-16 74 857 0
-855 -850 -845 856 0
855 -851 0
855 -651 0
855 -652 0
855 -821 0
855 -822 0
855 -852 0
855 -853 0
855 -854 0
855 -72 0
855 -56 0
855 -40 0
855 -39 0
855 -38 0
855 -37 0
855 -36 0
-6 -60 854 0
-3 60 853 0
-42 59 852 0
-45 -59 851 0
850 -846 0
850 -847 0
850 -645 0
850 -646 0
850 -814 0
850 -815 0
850 -848 0
850 -849 0
850 -70 0
850 -53 0
850 -27 0
850 -26 0
850 -25 0
850 -24 0
850 -23 0
-4 -60 849 0
-2 60 848 0
-32 -59 847 0
-29 59 846 0
845 -841 0
845 -638 0
845 -806 0
845 -639 0
845 -808 0
845 -842 0
845 -843 0
845 -844 0
845 -68 0
845 -47 0
845 -13 0
845 -12 0
845 -11 0
845 -10 0
845 -9 0
-5 -60 844 0
-1 60 843 0
-16 59 842 0
-19 -59 841 0
-839 -834 -829 840 0
839 -586 0
839 -587 0
839 -835 0
839 -836 0
839 -821 0
839 -837 0
839 -838 0
839 -822 0
839 -72 0
839 -57 0
839 -40 0
839 -39 0
839 -38 0
839 -37 0
839 -34 0
-3 61 838 0
-6 -61 837 0
-45 -61 836 0
-42 61 835 0
834 -577 0
834 -578 0
834 -830 0
834 -831 0
834 -814 0
834 -832 0
834 -833 0
834 -815 0
834 -70 0
834 -54 0
834 -27 0
834 -26 0
834 -25 0
834 -24 0
834 -21 0
-2 61 833 0
-4 -61 832 0
-32 -61 831 0
-29 61 830 0
829 -567 0
829 -568 0
829 -825 0
829 -826 0
829 -806 0
829 -827 0
829 -828 0
829 -808 0
829 -68 0
829 -48 0
829 -13 0
829 -12 0
829 -11 0
829 -10 0
829 -7 0
-1 61 828 0
-5 -61 827 0
-19 -61 826 0
-16 61 825 0
-823 -816 -809 824 0
823 -817 0
823 -818 0
823 -819 0
823 -820 0
823 -626 0
823 -627 0
823 -821 0
823 -822 0
823 -72 0
823 -67 0
823 -58 0
823 -57 0
823 -56 0
823 -40 0
823 -37 0
-41 61 822 0
-44 -61 821 0
-45 -79 820 0
-6 -78 819 0
-42 79 818 0
-3 78 817 0
816 -810 0
816 -811 0
816 -812 0
816 -813 0
816 -619 0
816 -620 0
816 -814 0
816 -815 0
816 -70 0
816 -66 0
816 -55 0
816 -54 0
816 -53 0
816 -27 0
816 -24 0
-28 61 815 0
-31 -61 814 0
-32 -79 813 0
-4 -78 812 0
-29 79 811 0
-2 78 810 0
809 -803 0
809 -804 0
809 -805 0
809 -612 0
809 -613 0
809 -806 0
809 -807 0
809 -808 0
809 -68 0
809 -62 0
809 -49 0
809 -48 0
809 -47 0
809 -13 0
809 -10 0
-15 61 808 0
-19 -79 807 0
-18 -61 806 0
-5 -78 805 0
-16 79 804 0
-1 78 803 0
802 -753 0
802 -769 0
802 -785 0
802 -801 0
802 -656 0
802 -657 0
802 -658 0
802 -659 0
-800 -795 -790 801 0
800 -749 0
800 -796 0
800 -651 0
800 -652 0
800 -797 0
800 -750 0
800 -798 0
800 -799 0
800 -40 0
800 -39 0
800 -38 0
800 -37 0
800 -36 0
800 -35 0
800 -34 0
-3 14 799 0
-6 -14 798 0
-14 -45 797 0
14 -42 796 0
795 -743 0
795 -791 0
795 -645 0
795 -744 0
795 -792 0
795 -646 0
795 -793 0
795 -794 0
795 -27 0
795 -26 0
795 -25 0
795 -24 0
795 -23 0
795 -22 0
795 -21 0
-2 14 794 0
-4 -14 793 0
-14 -32 792 0
-29 14 791 0
790 -786 0
790 -638 0
790 -787 0
790 -639 0
790 -736 0
790 -737 0
790 -788 0
790 -789 0
790 -13 0
790 -12 0
790 -11 0
790 -10 0
790 -9 0
790 -8 0
790 -7 0
-1 14 789 0
-5 -14 788 0
-14 -19 787 0
-16 14 786 0
-784 -779 -774 785 0
784 -780 0
784 -781 0
784 -749 0
784 -607 0
784 -608 0
784 -750 0
784 -782 0
784 -783 0
784 -58 0
784 -57 0
784 -56 0
784 -40 0
784 -38 0
784 -37 0
784 -35 0
-45 -51 783 0
-6 -50 782 0
-42 51 781 0
-3 50 780 0
779 -775 0
779 -776 0
779 -777 0
779 -743 0
779 -744 0
779 -601 0
779 -602 0
779 -778 0
779 -55 0
779 -54 0
779 -53 0
779 -27 0
779 -25 0
779 -24 0
779 -22 0
-32 -51 778 0
-4 -50 777 0
-29 51 776 0
-2 50 775 0
774 -770 0
774 -771 0
774 -772 0
774 -593 0
774 -594 0
774 -736 0
774 -737 0
774 -773 0
774 -49 0
774 -48 0
774 -47 0
774 -13 0
774 -11 0
774 -10 0
774 -8 0
-19 -51 773 0
-5 -50 772 0
-16 51 771 0
-1 50 770 0
-768 -763 -758 769 0
768 -764 0
768 -586 0
768 -587 0
768 -749 0
768 -750 0
768 -765 0
768 -766 0
768 -767 0
768 -57 0
768 -56 0
768 -40 0
768 -39 0
768 -38 0
768 -37 0
768 -35 0
-45 -60 767 0
-3 59 766 0
-6 -59 765 0
-42 60 764 0
763 -759 0
763 -577 0
763 -578 0
763 -743 0
763 -744 0
763 -760 0
763 -761 0
763 -762 0
763 -54 0
763 -53 0
763 -27 0
763 -26 0
763 -25 0
763 -24 0
763 -22 0
-32 -60 762 0
-2 59 761 0
-4 -59 760 0
-29 60 759 0
758 -567 0
758 -568 0
758 -736 0
758 -754 0
758 -755 0
758 -737 0
758 -756 0
758 -757 0
758 -48 0
758 -47 0
758 -13 0
758 -12 0
758 -11 0
758 -10 0
758 -8 0
-19 -60 757 0
-5 -59 756 0
-1 59 755 0
-16 60 754 0
-752 -745 -738 753 0
752 -746 0
752 -747 0
752 -748 0
752 -626 0
752 -627 0
752 -749 0
752 -750 0
752 -751 0
752 -67 0
752 -57 0
752 -56 0
752 -40 0
752 -39 0
752 -37 0
752 -35 0
-6 -63 751 0
-14 -44 750 0
14 -41 749 0
-45 -64 748 0
-42 64 747 0
-3 63 746 0
745 -739 0
745 -740 0
745 -741 0
745 -742 0
745 -619 0
745 -620 0
745 -743 0
745 -744 0
745 -66 0
745 -54 0
745 -53 0
745 -27 0
745 -26 0
745 -24 0
745 -22 0
-14 -31 744 0
-28 14 743 0
-32 -64 742 0
-4 -63 741 0
-29 64 740 0
-2 63 739 0
738 -732 0
738 -733 0
738 -734 0
738 -735 0
738 -612 0
738 -613 0
738 -736 0
738 -737 0
738 -62 0
738 -48 0
738 -47 0
738 -13 0
738 -12 0
738 -10 0
738 -8 0
-15 14 737 0
-14 -18 736 0
-19 -64 735 0
-5 -63 734 0
-16 64 733 0
-1 63 732 0
731 -682 0
731 -698 0
731 -714 0
731 -730 0
731 -656 0
731 -657 0
731 -658 0
731 -659 0
-729 -724 -719 730 0
729 -679 0
729 -725 0
729 -680 0
729 -726 0
729 -651 0
729 -652 0
729 -727 0
729 -728 0
729 -73 0
729 -72 0
729 -56 0
729 -39 0
729 -38 0
729 -37 0
729 -36 0
-6 -51 728 0
-3 51 727 0
-45 -50 726 0
-42 50 725 0
724 -672 0
724 -720 0
724 -645 0
724 -646 0
724 -673 0
724 -721 0
724 -722 0
724 -723 0
724 -71 0
724 -70 0
724 -53 0
724 -26 0
724 -25 0
724 -24 0
724 -23 0
-4 -51 723 0
-2 51 722 0
-32 -50 721 0
-29 50 720 0
719 -715 0
719 -664 0
719 -638 0
719 -639 0
719 -666 0
719 -716 0
719 -717 0
719 -718 0
719 -69 0
719 -68 0
719 -47 0
719 -12 0
719 -11 0
719 -10 0
719 -9 0
-5 -51 718 0
-1 51 717 0
-19 -50 716 0
-16 50 715 0
-713 -708 -703 714 0
713 -709 0
713 -710 0
713 -679 0
713 -680 0
713 -607 0
713 -608 0
713 -711 0
713 -712 0
713 -72 0
713 -57 0
713 -40 0
713 -39 0
713 -38 0
713 -37 0
713 -34 0
-6 -52 712 0
-3 52 711 0
-45 -52 710 0
-42 52 709 0
708 -704 0
708 -672 0
708 -601 0
708 -602 0
708 -673 0
708 -705 0
708 -706 0
708 -707 0
708 -70 0
708 -54 0
708 -27 0
708 -26 0
708 -25 0
708 -24 0
708 -21 0
-32 -52 707 0
-4 -52 706 0
-2 52 705 0
-29 52 704 0
703 -699 0
703 -700 0
703 -664 0
703 -593 0
703 -594 0
703 -666 0
703 -701 0
703 -702 0
703 -68 0
703 -48 0
703 -13 0
703 -12 0
703 -11 0
703 -10 0
703 -7 0
-5 -52 702 0
-1 52 701 0
-19 -52 700 0
-16 52 699 0
-697 -692 -687 698 0
697 -693 0
697 -694 0
697 -695 0
697 -586 0
697 -587 0
697 -679 0
697 -680 0
697 -696 0
697 -72 0
697 -58 0
697 -57 0
697 -56 0
697 -40 0
697 -38 0
697 -37 0
-45 -75 696 0
-6 -74 695 0
-42 75 694 0
-3 74 693 0
692 -688 0
692 -689 0
692 -577 0
692 -578 0
692 -672 0
692 -673 0
692 -690 0
692 -691 0
692 -70 0
692 -55 0
692 -54 0
692 -53 0
692 -27 0
692 -25 0
692 -24 0
-29 75 691 0
-32 -75 690 0
-4 -74 689 0
-2 74 688 0
687 -683 0
687 -684 0
687 -567 0
687 -568 0
687 -664 0
687 -666 0
687 -685 0
687 -686 0
687 -68 0
687 -49 0
687 -48 0
687 -47 0
687 -13 0
687 -11 0
687 -10 0
-16 75 686 0
-19 -75 685 0
-5 -74 684 0
-1 74 683 0
-681 -674 -667 682 0
681 -675 0
681 -676 0
681 -677 0
681 -678 0
681 -626 0
681 -627 0
681 -679 0
681 -680 0
681 -72 0
681 -67 0
681 -57 0
681 -56 0
681 -40 0
681 -39 0
681 -37 0
-44 -52 680 0
-41 52 679 0
-45 -77 678 0
-6 -76 677 0
-42 77 676 0
-3 76 675 0
674 -668 0
674 -669 0
674 -670 0
674 -671 0
674 -619 0
674 -620 0
674 -672 0
674 -673 0
674 -70 0
674 -66 0
674 -54 0
674 -53 0
674 -27 0
674 -26 0
674 -24 0
-31 -52 673 0
-28 52 672 0
-32 -77 671 0
-4 -76 670 0
-29 77 669 0
-2 76 668 0
667 -661 0
667 -662 0
667 -663 0
667 -612 0
667 -613 0
667 -664 0
667 -665 0
667 -666 0
667 -68 0
667 -62 0
667 -48 0
667 -47 0
667 -13 0
667 -12 0
667 -10 0
-15 52 666 0
-19 -77 665 0
-18 -52 664 0
-5 -76 663 0
-16 77 662 0
-1 76 661 0
660 -589 0
660 -611 0
660 -633 0
660 -655 0
660 -656 0
660 -657 0
660 -658 0
660 -659 0
-5 4 659 0
-4 6 658 0
-3 2 657 0
-2 1 656 0
-654 -647 -640 655 0
654 -584 0
654 -648 0
654 -649 0
654 -585 0
654 -650 0
654 -651 0
654 -652 0
654 -653 0
654 -82 0
654 -72 0
654 -56 0
654 -40 0
654 -39 0
654 -38 0
654 -36 0
-6 -64 653 0
-14 -46 652 0
14 -43 651 0
-45 -63 650 0
-42 63 649 0
-3 64 648 0
647 -575 0
647 -641 0
647 -642 0
647 -576 0
647 -643 0
647 -644 0
647 -645 0
647 -646 0
647 -81 0
647 -70 0
647 -53 0
647 -27 0
647 -26 0
647 -25 0
647 -23 0
-14 -33 646 0
-30 14 645 0
-32 -63 644 0
-4 -64 643 0
-29 63 642 0
-2 64 641 0
640 -565 0
640 -634 0
640 -635 0
640 -566 0
640 -636 0
640 -637 0
640 -638 0
640 -639 0
640 -80 0
640 -68 0
640 -47 0
640 -13 0
640 -12 0
640 -11 0
640 -9 0
-14 -20 639 0
-17 14 638 0
-19 -63 637 0
-5 -64 636 0
-16 63 635 0
-1 64 634 0
-632 -625 -618 633 0
632 -626 0
632 -627 0
632 -628 0
632 -629 0
632 -630 0
632 -584 0
632 -585 0
632 -631 0
632 -82 0
632 -72 0
632 -67 0
632 -57 0
632 -40 0
632 -39 0
632 -34 0
-6 -65 631 0
-45 -65 630 0
-42 65 629 0
-3 65 628 0
-46 -65 627 0
-43 65 626 0
625 -619 0
625 -620 0
625 -621 0
625 -622 0
625 -623 0
625 -624 0
625 -575 0
625 -576 0
625 -81 0
625 -70 0
625 -66 0
625 -54 0
625 -27 0
625 -26 0
625 -21 0
-32 -65 624 0
-4 -65 623 0
-29 65 622 0
-2 65 621 0
-33 -65 620 0
-30 65 619 0
618 -612 0
618 -613 0
618 -614 0
618 -615 0
618 -616 0
618 -617 0
618 -565 0
618 -566 0
618 -80 0
618 -68 0
618 -62 0
618 -48 0
618 -13 0
618 -12 0
618 -7 0
-19 -65 617 0
-5 -65 616 0
-16 65 615 0
-1 65 614 0
-20 -65 613 0
-17 65 612 0
-610 -603 -596 611 0
610 -604 0
610 -605 0
610 -606 0
610 -584 0
610 -585 0
610 -607 0
610 -608 0
610 -609 0
610 -82 0
610 -72 0
610 -57 0
610 -56 0
610 -40 0
610 -39 0
610 -38 0
-45 -76 609 0
-46 -52 608 0
-43 52 607 0
-6 -77 606 0
-42 76 605 0
-3 77 604 0
603 -597 0
603 -598 0
603 -599 0
603 -600 0
603 -575 0
603 -576 0
603 -601 0
603 -602 0
603 -81 0
603 -70 0
603 -54 0
603 -53 0
603 -27 0
603 -26 0
603 -25 0
-33 -52 602 0
-30 52 601 0
-32 -76 600 0
-4 -77 599 0
-29 76 598 0
-2 77 597 0
596 -590 0
596 -591 0
596 -592 0
596 -565 0
596 -566 0
596 -593 0
596 -594 0
596 -595 0
596 -80 0
596 -68 0
596 -48 0
596 -47 0
596 -13 0
596 -12 0
596 -11 0
-19 -76 595 0
-20 -52 594 0
-17 52 593 0
-5 -77 592 0
-16 76 591 0
-1 77 590 0
-588 -579 -570 589 0
588 -580 0
588 -581 0
588 -582 0
588 -583 0
588 -584 0
588 -585 0
588 -586 0
588 -587 0
588 -82 0
588 -73 0
588 -72 0
588 -57 0
588 -56 0
588 -39 0
588 -38 0
-46 -61 587 0
-43 61 586 0
-44 -65 585 0
-41 65 584 0
-45 -78 583 0
-6 -79 582 0
-42 78 581 0
-3 79 580 0
579 -571 0
579 -572 0
579 -573 0
579 -574 0
579 -575 0
579 -576 0
579 -577 0
579 -578 0
579 -81 0
579 -71 0
579 -70 0
579 -54 0
579 -53 0
579 -26 0
579 -25 0
-33 -61 578 0
-30 61 577 0
-31 -65 576 0
-28 65 575 0
-32 -78 574 0
-4 -79 573 0
-29 78 572 0
-2 79 571 0
570 -562 0
570 -563 0
570 -564 0
570 -565 0
570 -566 0
570 -567 0
570 -568 0
570 -569 0
570 -80 0
570 -69 0
570 -68 0
570 -48 0
570 -47 0
570 -12 0
570 -11 0
-19 -78 569 0
-20 -61 568 0
-17 61 567 0
-18 -65 566 0
-15 65 565 0
-5 -79 564 0
-16 78 563 0
-1 79 562 0
561 -533 0
561 -551 0
561 -559 0
561 -560 0
14 -558 -550 -532 560 0
52 -558 -542 -517 559 0
558 -554 0
558 -557 0
51 -526 -525 -556 -555 557 0
556 -523 0
556 74 0
555 -546 0
555 76 0
50 -511 -510 -553 -552 554 0
553 -508 0
553 59 0
552 -538 0
552 63 0
61 -550 -542 -501 551 0
550 -545 0
550 -549 0
60 -522 -521 -548 -547 549 0
548 -527 0
548 75 0
547 -546 0
547 78 0
64 -530 -529 546 0
59 -495 -494 -544 -543 545 0
544 -492 0
544 50 0
543 -534 0
543 63 0
542 -537 0
542 -541 0
75 -507 -506 -540 -539 541 0
540 -512 0
540 60 0
539 -538 0
539 78 0
77 -515 -514 538 0
74 -491 -490 -536 -535 537 0
536 -496 0
536 51 0
535 -534 0
535 76 0
79 -499 -498 534 0
65 -532 -517 -501 533 0
532 -520 0
532 -531 0
64 -530 -529 -528 -524 531 0
530 77 0
530 51 0
529 79 0
529 60 0
528 -527 0
528 77 0
51 -526 -525 527 0
526 64 0
526 76 0
525 74 0
525 60 0
524 -523 0
524 79 0
60 -522 -521 523 0
522 75 0
522 51 0
521 78 0
521 64 0
63 -480 -519 -479 -518 520 0
519 -485 0
519 50 0
518 -502 0
518 59 0
517 -505 0
517 -516 0
77 -515 -514 -513 -509 516 0
515 64 0
515 50 0
514 75 0
514 79 0
513 -512 0
513 64 0
50 -511 -510 512 0
511 75 0
511 59 0
510 77 0
510 63 0
509 -508 0
509 79 0
75 -507 -506 508 0
507 60 0
507 50 0
506 77 0
506 78 0
76 -484 -483 -504 -503 505 0
504 -481 0
504 51 0
503 -502 0
503 74 0
78 -488 -487 502 0
501 -489 0
501 -500 0
79 -499 -498 -497 -493 500 0
499 59 0
499 64 0
498 77 0
498 74 0
497 -496 0
497 64 0
59 -495 -494 496 0
495 74 0
495 50 0
494 79 0
494 63 0
493 -492 0
493 77 0
74 -491 -490 492 0
491 59 0
491 51 0
490 79 0
490 76 0
78 -488 -487 -486 -482 489 0
488 60 0
488 63 0
487 75 0
487 76 0
486 -485 0
486 75 0
76 -484 -483 485 0
484 63 0
484 51 0
483 78 0
483 74 0
482 -481 0
482 60 0
63 -480 -479 481 0
480 50 0
480 76 0
479 78 0
479 59 0
-477 -164 -163 -155 -137 478 0
477 -263 0
477 -334 0
477 -405 0
477 -476 0
-262 -261 -260 -259 -475 -459 -443 -427 476 0
475 -464 0
475 -469 0
475 -474 0
39 38 37 56 57 73 72 -425 -473 -472 -471 -470 -424 -211 -210 474 0
473 75 0
473 6 0
472 -75 0
472 3 0
471 74 0
471 45 0
470 42 0
470 -74 0
25 24 26 54 53 71 70 -418 -468 -467 -417 -466 -465 -205 -204 469 0
468 75 0
468 4 0
467 -75 0
467 2 0
466 74 0
466 32 0
465 -74 0
465 29 0
12 11 10 69 68 48 47 -411 -463 -462 -461 -460 -409 -197 -196 464 0
463 75 0
463 5 0
462 -75 0
462 1 0
461 74 0
461 19 0
460 -74 0
460 16 0
459 -448 0
459 -453 0
459 -458 0
39 38 37 36 56 40 72 -457 -456 -455 -425 -424 -255 -254 -454 458 0
457 60 0
457 6 0
456 -60 0
456 3 0
455 42 0
455 -59 0
454 59 0
454 45 0
25 24 23 27 26 53 70 -452 -451 -418 -417 -249 -248 -450 -449 453 0
452 60 0
452 4 0
451 -60 0
451 2 0
450 59 0
450 32 0
449 -59 0
449 29 0
13 9 12 11 10 68 47 -447 -446 -445 -411 -242 -409 -241 -444 448 0
447 60 0
447 5 0
446 -60 0
446 1 0
445 -59 0
445 16 0
444 59 0
444 19 0
443 -432 0
443 -437 0
443 -442 0
39 38 37 34 40 57 72 -425 -441 -440 -424 -439 -438 -190 -189 442 0
441 61 0
441 6 0
440 -61 0
440 3 0
439 45 0
439 61 0
438 42 0
438 -61 0
25 24 21 27 26 54 70 -418 -436 -435 -417 -434 -433 -181 -180 437 0
436 61 0
436 4 0
435 -61 0
435 2 0
434 61 0
434 32 0
433 -61 0
433 29 0
13 7 12 11 10 68 48 -411 -431 -430 -409 -429 -428 -171 -170 432 0
431 61 0
431 5 0
430 -61 0
430 1 0
429 61 0
429 19 0
428 -61 0
428 16 0
427 -412 0
427 -419 0
427 -426 0
37 56 67 40 58 57 72 -425 -424 -230 -229 -423 -422 -421 -420 426 0
425 41 0
425 -61 0
424 44 0
424 61 0
423 79 0
423 45 0
422 78 0
422 6 0
421 42 0
421 -79 0
420 -78 0
420 3 0
24 27 54 53 55 66 70 -418 -417 -223 -222 -416 -415 -414 -413 419 0
418 -61 0
418 28 0
417 61 0
417 31 0
416 79 0
416 32 0
415 78 0
415 4 0
414 -79 0
414 29 0
413 -78 0
413 2 0
13 10 68 49 48 62 47 -411 -410 -409 -216 -215 -408 -407 -406 412 0
411 -61 0
411 15 0
410 79 0
410 19 0
409 61 0
409 18 0
408 78 0
408 5 0
407 -79 0
407 16 0
406 -78 0
406 1 0
-262 -261 -260 -259 -404 -388 -372 -356 405 0
404 -393 0
404 -398 0
404 -403 0
39 38 35 37 36 34 40 -402 -401 -353 -400 -255 -254 -399 -352 403 0
402 14 0
402 6 0
401 3 0
401 -14 0
400 45 0
400 14 0
399 42 0
399 -14 0
25 24 23 22 21 27 26 -397 -396 -249 -395 -347 -248 -394 -346 398 0
397 14 0
397 4 0
396 2 0
396 -14 0
395 32 0
395 14 0
394 29 0
394 -14 0
13 9 7 8 12 11 10 -340 -392 -391 -339 -242 -390 -241 -389 393 0
392 14 0
392 5 0
391 1 0
391 -14 0
390 14 0
390 19 0
389 16 0
389 -14 0
388 -377 0
388 -382 0
388 -387 0
38 35 37 56 40 58 57 -386 -385 -353 -211 -210 -352 -384 -383 387 0
386 45 0
386 51 0
385 50 0
385 6 0
384 42 0
384 -51 0
383 -50 0
383 3 0
25 24 22 27 54 53 55 -381 -205 -204 -347 -346 -380 -379 -378 382 0
381 51 0
381 32 0
380 50 0
380 4 0
379 -51 0
379 29 0
378 -50 0
378 2 0
13 8 11 10 49 48 47 -376 -340 -339 -197 -196 -375 -374 -373 377 0
376 51 0
376 19 0
375 50 0
375 5 0
374 -51 0
374 16 0
373 -50 0
373 1 0
372 -361 0
372 -366 0
372 -371 0
39 38 35 37 56 40 57 -370 -369 -368 -353 -352 -190 -189 -367 371 0
370 60 0
370 45 0
369 -59 0
369 3 0
368 59 0
368 6 0
367 42 0
367 -60 0
25 24 22 27 26 54 53 -365 -364 -363 -347 -346 -181 -180 -362 366 0
365 60 0
365 32 0
364 -59 0
364 2 0
363 59 0
363 4 0
362 -60 0
362 29 0
13 8 12 11 10 48 47 -360 -359 -340 -358 -357 -339 -171 -170 361 0
360 60 0
360 19 0
359 59 0
359 5 0
358 -59 0
358 1 0
357 -60 0
357 16 0
356 -341 0
356 -348 0
356 -355 0
39 35 37 56 67 40 57 -354 -353 -352 -230 -229 -351 -350 -349 355 0
354 63 0
354 6 0
353 44 0
353 14 0
352 41 0
352 -14 0
351 64 0
351 45 0
350 42 0
350 -64 0
349 -63 0
349 3 0
24 22 27 26 54 53 66 -347 -346 -223 -222 -345 -344 -343 -342 348 0
347 31 0
347 14 0
346 28 0
346 -14 0
345 64 0
345 32 0
344 63 0
344 4 0
343 -64 0
343 29 0
342 -63 0
342 2 0
13 8 12 10 48 62 47 -340 -339 -216 -215 -338 -337 -336 -335 341 0
340 15 0
340 -14 0
339 14 0
339 18 0
338 64 0
338 19 0
337 63 0
337 5 0
336 -64 0
336 16 0
335 -63 0
335 1 0
-262 -261 -260 -259 -333 -317 -301 -285 334 0
333 -322 0
333 -327 0
333 -332 0
39 38 37 36 56 73 72 -331 -330 -255 -254 -329 -283 -328 -282 332 0
331 51 0
331 6 0
330 -51 0
330 3 0
329 45 0
329 50 0
328 42 0
328 -50 0
25 24 23 26 53 71 70 -326 -325 -324 -276 -249 -248 -323 -275 327 0
326 51 0
326 4 0
325 -51 0
325 2 0
324 50 0
324 32 0
323 -50 0
323 29 0
9 12 11 10 69 68 47 -321 -320 -319 -269 -242 -241 -267 -318 322 0
321 51 0
321 5 0
320 -51 0
320 1 0
319 50 0
319 19 0
318 -50 0
318 16 0
317 -306 0
317 -311 0
317 -316 0
39 38 37 34 40 57 72 -315 -314 -211 -210 -283 -282 -313 -312 316 0
315 -52 0
315 3 0
314 52 0
314 6 0
313 45 0
313 52 0
312 42 0
312 -52 0
25 24 21 27 26 54 70 -310 -309 -308 -276 -205 -204 -275 -307 311 0
310 52 0
310 32 0
309 -52 0
309 2 0
308 52 0
308 4 0
307 -52 0
307 29 0
13 7 12 11 10 68 48 -305 -304 -269 -197 -196 -267 -303 -302 306 0
305 -52 0
305 1 0
304 52 0
304 5 0
303 52 0
303 19 0
302 -52 0
302 16 0
301 -290 0
301 -295 0
301 -300 0
38 37 56 40 58 57 72 -299 -283 -282 -190 -189 -298 -297 -296 300 0
299 75 0
299 45 0
298 74 0
298 6 0
297 42 0
297 -75 0
296 -74 0
296 3 0
25 24 27 54 53 55 70 -294 -293 -276 -275 -181 -180 -292 -291 295 0
294 -75 0
294 29 0
293 75 0
293 32 0
292 74 0
292 4 0
291 -74 0
291 2 0
13 11 10 68 49 48 47 -289 -288 -269 -267 -171 -170 -287 -286 290 0
289 -75 0
289 16 0
288 75 0
288 19 0
287 74 0
287 5 0
286 -74 0
286 1 0
285 -270 0
285 -277 0
285 -284 0
39 37 56 67 40 57 72 -283 -282 -230 -229 -281 -280 -279 -278 284 0
283 44 0
283 52 0
282 41 0
282 -52 0
281 77 0
281 45 0
280 76 0
280 6 0
279 42 0
279 -77 0
278 -76 0
278 3 0
24 27 26 54 53 66 70 -276 -275 -223 -222 -274 -273 -272 -271 277 0
276 52 0
276 31 0
275 -52 0
275 28 0
274 77 0
274 32 0
273 76 0
273 4 0
272 -77 0
272 29 0
271 -76 0
271 2 0
13 12 10 68 48 62 47 -269 -268 -267 -216 -215 -266 -265 -264 270 0
269 -52 0
269 15 0
268 77 0
268 19 0
267 52 0
267 18 0
266 76 0
266 5 0
265 -77 0
265 16 0
264 -76 0
264 1 0
-262 -261 -260 -259 -258 -236 -214 -192 263 0
262 5 0
262 -4 0
261 4 0
261 -6 0
260 3 0
260 -2 0
259 2 0
259 -1 0
258 -243 0
258 -250 0
258 -257 0
39 38 36 56 40 72 82 -256 -255 -254 -253 -188 -252 -251 -187 257 0
256 64 0
256 6 0
255 46 0
255 14 0
254 43 0
254 -14 0
253 63 0
253 45 0
252 42 0
252 -63 0
251 -64 0
251 3 0
25 23 27 26 53 81 70 -249 -248 -247 -246 -179 -245 -244 -178 250 0
249 33 0
249 14 0
248 30 0
248 -14 0
247 63 0
247 32 0
246 64 0
246 4 0
245 -63 0
245 29 0
244 -64 0
244 2 0
13 9 12 11 68 47 80 -242 -241 -240 -239 -169 -238 -237 -168 243 0
242 14 0
242 20 0
241 17 0
241 -14 0
240 63 0
240 19 0
239 64 0
239 5 0
238 -63 0
238 16 0
237 -64 0
237 1 0
236 -221 0
236 -228 0
236 -235 0
39 34 67 40 57 72 82 -234 -188 -187 -233 -232 -231 -230 -229 235 0
234 65 0
234 6 0
233 65 0
233 45 0
232 42 0
232 -65 0
231 -65 0
231 3 0
230 65 0
230 46 0
229 43 0
229 -65 0
21 27 26 54 81 66 70 -179 -178 -227 -226 -225 -224 -223 -222 228 0
227 65 0
227 32 0
226 65 0
226 4 0
225 -65 0
225 29 0
224 -65 0
224 2 0
223 65 0
223 33 0
222 -65 0
222 30 0
13 7 12 68 48 62 80 -169 -168 -220 -219 -218 -217 -216 -215 221 0
220 65 0
220 19 0
219 65 0
219 5 0
218 -65 0
218 16 0
217 -65 0
217 1 0
216 65 0
216 20 0
215 -65 0
215 17 0
214 -199 0
214 -206 0
214 -213 0
39 38 56 40 57 72 82 -212 -211 -210 -188 -187 -209 -208 -207 213 0
212 45 0
212 76 0
211 46 0
211 52 0
210 43 0
210 -52 0
209 77 0
209 6 0
208 42 0
208 -76 0
207 -77 0
207 3 0
25 27 26 54 53 81 70 -205 -204 -179 -178 -203 -202 -201 -200 206 0
205 52 0
205 33 0
204 -52 0
204 30 0
203 76 0
203 32 0
202 77 0
202 4 0
201 -76 0
201 29 0
200 -77 0
200 2 0
13 12 11 68 48 47 80 -198 -197 -196 -169 -168 -195 -194 -193 199 0
198 76 0
198 19 0
197 52 0
197 20 0
196 -52 0
196 17 0
195 77 0
195 5 0
194 -76 0
194 16 0
193 -77 0
193 1 0
192 -173 0
192 -182 0
192 -191 0
39 38 56 57 73 72 82 -190 -189 -188 -187 -186 -185 -184 -183 191 0
190 46 0
190 61 0
189 43 0
189 -61 0
188 44 0
188 65 0
187 41 0
187 -65 0
186 78 0
186 45 0
185 79 0
185 6 0
184 42 0
184 -78 0
183 -79 0
183 3 0
25 26 54 53 81 71 70 -181 -180 -179 -178 -177 -176 -175 -174 182 0
181 61 0
181 33 0
180 -61 0
180 30 0
179 65 0
179 31 0
178 -65 0
178 28 0
177 78 0
177 32 0
176 79 0
176 4 0
175 -78 0
175 29 0
174 -79 0
174 2 0
12 11 69 68 48 47 80 -172 -171 -170 -169 -168 -167 -166 -165 173 0
172 78 0
172 19 0
171 61 0
171 20 0
170 -61 0
170 17 0
169 65 0
169 18 0
168 -65 0
168 15 0
167 79 0
167 5 0
166 -78 0
166 16 0
165 -79 0
165 1 0
164 -136 0
164 -154 0
164 -162 0
164 -14 0
163 -121 0
163 -146 0
163 -162 0
163 -52 0
-161 -158 162 0
161 -159 0
161 -160 0
161 -129 0
161 -130 0
161 -51 0
-74 -127 160 0
-76 -150 159 0
158 -156 0
158 -157 0
158 -114 0
158 -115 0
158 -50 0
-59 -112 157 0
-63 -142 156 0
155 -105 0
155 -146 0
155 -154 0
155 -61 0
-153 -149 154 0
153 -151 0
153 -152 0
153 -125 0
153 -126 0
153 -60 0
-75 -131 152 0
-78 -150 151 0
150 -133 0
150 -134 0
150 -64 0
149 -147 0
149 -148 0
149 -98 0
149 -99 0
149 -59 0
-50 -96 148 0
-63 -138 147 0
-145 -141 146 0
145 -143 0
145 -144 0
145 -110 0
145 -111 0
145 -75 0
-60 -116 144 0
-78 -142 143 0
142 -118 0
142 -119 0
142 -77 0
141 -139 0
141 -140 0
141 -94 0
141 -95 0
141 -74 0
-51 -100 140 0
-76 -138 139 0
138 -102 0
138 -103 0
138 -79 0
137 -105 0
137 -121 0
137 -136 0
137 -65 0
-135 -124 136 0
135 -128 0
135 -132 0
135 -133 0
135 -134 0
135 -64 0
-51 -77 134 0
-60 -79 133 0
-77 -131 132 0
131 -129 0
131 -130 0
131 -51 0
-64 -76 130 0
-60 -74 129 0
-79 -127 128 0
127 -125 0
127 -126 0
127 -60 0
-51 -75 126 0
-64 -78 125 0
124 -122 0
124 -83 0
124 -123 0
124 -84 0
124 -63 0
-50 -89 123 0
-59 -106 122 0
-120 -109 121 0
120 -113 0
120 -117 0
120 -118 0
120 -119 0
120 -77 0
-50 -64 119 0
-75 -79 118 0
-64 -116 117 0
116 -114 0
116 -115 0
116 -50 0
-59 -75 115 0
-63 -77 114 0
-79 -112 113 0
112 -110 0
112 -111 0
112 -75 0
-50 -60 111 0
-77 -78 110 0
109 -107 0
109 -108 0
109 -87 0
109 -88 0
109 -76 0
-51 -85 108 0
-74 -106 107 0
106 -91 0
106 -92 0
106 -78 0
-104 -93 105 0
104 -97 0
104 -101 0
104 -102 0
104 -103 0
104 -79 0
-59 -64 103 0
-74 -77 102 0
-64 -100 101 0
100 -98 0
100 -99 0
100 -59 0
-50 -74 99 0
-63 -79 98 0
-77 -96 97 0
96 -94 0
96 -95 0
96 -74 0
-51 -59 95 0
-76 -79 94 0
93 -86 0
93 -90 0
93 -91 0
93 -92 0
93 -78 0
-60 -63 92 0
-75 -76 91 0
-75 -89 90 0
89 -87 0
89 -88 0
89 -76 0
-51 -63 88 0
-74 -78 87 0
-60 -85 86 0
85 -83 0
85 -84 0
85 -63 0
-50 -76 84 0
-59 -78 83 0
